162 140 63 92 31 153 108 38 77 130 117 129 147 150 107 104 15 50 88 149 200 177 30 182 64 36 11 143 
126 37 82 100 69 113 1 199 35 19 197 102 110 145 179 135 175 34 62 138 20 46 186 93 14 174 29 53 99 94 151 192 23 119 55 194 158 51 70 16 116 83 68 18 4 54 87 33 180 27 183 103 25 164 10 78 49 178 6 28 
171 47 48 84 7 169 59 105 188 187 72 111 106 22 190 95 44 2 42 120 159 71 67 115 121 81 52 65 127 185 58 60 134 191 195 3 91 165 45 56 101 32 122 181 
152 133 167 156 24 168 128 90 109 112 144 118 137 160 9 13 146 96 8 76 163 5 17 161 172 75 
131 21 86 57 85 43 132 98 61 176 123 142 148 124 41 173 139 136 79 166 114 40 154 39 198 73 193 141 184 89 12 157 74 80 196 189 125 26 97 66 
155 170 

